# Generated by ConicBenchmarkUtilities.jl
VER
2

OBJSENSE
MIN

VAR
310 1
F 310

INT
60
27
28
29
30
31
32
33
34
35
36
37
38
39
40
41
42
43
44
45
46
47
48
49
50
51
52
53
54
55
56
104
108
112
122
126
130
151
152
153
155
159
163
193
194
195
197
201
205
215
219
223
233
237
241
262
263
264
277
278
279

CON
886 850
L= 1
L= 1
L= 1
L= 1
L= 1
L= 1
L= 1
L= 1
L= 1
L= 1
L= 1
L= 1
L= 1
L= 1
L= 1
L= 1
L= 1
L= 1
L= 1
EXP 3
L+ 1
L+ 1
EXP 3
L+ 1
L+ 1
EXP 3
L+ 1
L+ 1
L= 1
L= 1
L= 1
L= 1
L= 1
L= 1
L= 1
L= 1
L= 1
L= 1
L= 1
L= 1
L+ 1
L+ 1
L+ 1
L+ 1
L+ 1
L+ 1
L+ 1
L+ 1
L+ 1
L+ 1
L+ 1
L+ 1
EXP 3
L+ 1
L+ 1
EXP 3
L+ 1
L+ 1
EXP 3
L+ 1
L+ 1
L= 1
L= 1
L= 1
L= 1
L= 1
L= 1
L= 1
L= 1
L= 1
L= 1
L= 1
L= 1
L+ 1
L+ 1
L+ 1
L+ 1
L+ 1
L+ 1
L+ 1
L+ 1
L+ 1
L+ 1
L+ 1
L+ 1
L= 1
L= 1
L= 1
L= 1
L= 1
L= 1
L= 1
L= 1
L= 1
L= 1
L= 1
L= 1
L= 1
L= 1
L= 1
L+ 1
L+ 1
L+ 1
L+ 1
L+ 1
L+ 1
L+ 1
L+ 1
L+ 1
L+ 1
L+ 1
L+ 1
EXP 3
L+ 1
L+ 1
EXP 3
L+ 1
L+ 1
EXP 3
L+ 1
L+ 1
L= 1
L= 1
L= 1
L= 1
L= 1
L= 1
L= 1
L= 1
L= 1
L= 1
L= 1
L= 1
L+ 1
L+ 1
L+ 1
L+ 1
L+ 1
L+ 1
L+ 1
L+ 1
L+ 1
L+ 1
L+ 1
L+ 1
L= 1
L= 1
L= 1
L= 1
L= 1
L= 1
L= 1
L= 1
L= 1
L= 1
L= 1
L= 1
L= 1
L= 1
L= 1
L= 1
L= 1
L= 1
L= 1
L= 1
L= 1
L= 1
L= 1
L= 1
L+ 1
L+ 1
L+ 1
L+ 1
L+ 1
L+ 1
L+ 1
L+ 1
L+ 1
L+ 1
L+ 1
L+ 1
L+ 1
L+ 1
L+ 1
L+ 1
L+ 1
L+ 1
EXP 3
L+ 1
L+ 1
EXP 3
L+ 1
L+ 1
EXP 3
L+ 1
L+ 1
L= 1
L= 1
L= 1
L= 1
L= 1
L= 1
L= 1
L= 1
L= 1
L= 1
L= 1
L= 1
L+ 1
L+ 1
L+ 1
L+ 1
L+ 1
L+ 1
L+ 1
L+ 1
L+ 1
L+ 1
L+ 1
L+ 1
EXP 3
L+ 1
L+ 1
EXP 3
L+ 1
L+ 1
EXP 3
L+ 1
L+ 1
L= 1
L= 1
L= 1
L= 1
L= 1
L= 1
L= 1
L= 1
L= 1
L= 1
L= 1
L= 1
L+ 1
L+ 1
L+ 1
L+ 1
L+ 1
L+ 1
L+ 1
L+ 1
L+ 1
L+ 1
L+ 1
L+ 1
EXP 3
L+ 1
L+ 1
EXP 3
L+ 1
L+ 1
EXP 3
L+ 1
L+ 1
L= 1
L= 1
L= 1
L= 1
L= 1
L= 1
L= 1
L= 1
L= 1
L= 1
L= 1
L= 1
L+ 1
L+ 1
L+ 1
L+ 1
L+ 1
L+ 1
L+ 1
L+ 1
L+ 1
L+ 1
L+ 1
L+ 1
L= 1
L= 1
L= 1
L= 1
L= 1
L= 1
L= 1
L= 1
L= 1
L= 1
L= 1
L= 1
L= 1
L= 1
L= 1
L+ 1
L+ 1
L+ 1
L+ 1
L+ 1
L+ 1
L+ 1
L+ 1
L+ 1
L+ 1
L+ 1
L+ 1
L= 1
L= 1
L= 1
L= 1
L= 1
L= 1
L= 1
L= 1
L= 1
L= 1
L= 1
L= 1
L= 1
L= 1
L= 1
L+ 1
L+ 1
L+ 1
L+ 1
L+ 1
L+ 1
L+ 1
L+ 1
L+ 1
L+ 1
L+ 1
L+ 1
L= 1
L= 1
L= 1
L= 1
L= 1
L= 1
L= 1
L= 1
L= 1
L= 1
L= 1
L= 1
L= 1
L= 1
L= 1
L= 1
L= 1
L= 1
L= 1
L= 1
L= 1
L= 1
L= 1
L= 1
L= 1
L= 1
L= 1
L= 1
L= 1
L= 1
L+ 1
L+ 1
L+ 1
L+ 1
L+ 1
L+ 1
L+ 1
L+ 1
L+ 1
L+ 1
L+ 1
L+ 1
L+ 1
L+ 1
L+ 1
L+ 1
L+ 1
L+ 1
L+ 1
L+ 1
L+ 1
L+ 1
L+ 1
L+ 1
L+ 1
L+ 1
L+ 1
L+ 1
L+ 1
L+ 1
L+ 1
L+ 1
L+ 1
L+ 1
L+ 1
L+ 1
L+ 1
L+ 1
L+ 1
L+ 1
L+ 1
L+ 1
L+ 1
L+ 1
L+ 1
L+ 1
L+ 1
L+ 1
L+ 1
L+ 1
L+ 1
L+ 1
L+ 1
L+ 1
L+ 1
L+ 1
L+ 1
L+ 1
L+ 1
L+ 1
L+ 1
L+ 1
L+ 1
L+ 1
L+ 1
L+ 1
L+ 1
L+ 1
L+ 1
L+ 1
L+ 1
L+ 1
L+ 1
L+ 1
L+ 1
L+ 1
L+ 1
L+ 1
L+ 1
L+ 1
L+ 1
L+ 1
L+ 1
L+ 1
L+ 1
L+ 1
L+ 1
L+ 1
L+ 1
L+ 1
L+ 1
L+ 1
L+ 1
L+ 1
L+ 1
L+ 1
L+ 1
L+ 1
L+ 1
L+ 1
L+ 1
L+ 1
L+ 1
L+ 1
L+ 1
L+ 1
L+ 1
L+ 1
L+ 1
L+ 1
L+ 1
L+ 1
L+ 1
L+ 1
L+ 1
L+ 1
L+ 1
L+ 1
L+ 1
L+ 1
L= 1
L= 1
L= 1
L+ 1
L+ 1
L+ 1
L+ 1
L+ 1
L+ 1
L+ 1
L+ 1
L+ 1
L+ 1
L+ 1
L+ 1
L+ 1
L+ 1
L+ 1
L+ 1
L+ 1
L+ 1
L+ 1
L+ 1
L+ 1
L+ 1
L+ 1
L+ 1
L+ 1
L+ 1
L+ 1
L+ 1
L+ 1
L+ 1
L+ 1
L+ 1
L+ 1
L+ 1
L+ 1
L+ 1
L+ 1
L+ 1
L+ 1
L+ 1
L+ 1
L+ 1
L+ 1
L+ 1
L+ 1
L+ 1
L+ 1
L+ 1
L+ 1
L+ 1
L+ 1
L+ 1
L+ 1
L+ 1
L+ 1
L+ 1
L+ 1
L+ 1
L+ 1
L+ 1
L+ 1
L+ 1
L+ 1
L+ 1
L+ 1
L+ 1
L+ 1
L+ 1
L+ 1
L+ 1
L+ 1
L+ 1
L+ 1
L+ 1
L+ 1
L+ 1
L+ 1
L+ 1
L+ 1
L+ 1
L+ 1
L+ 1
L+ 1
L+ 1
L+ 1
L+ 1
L+ 1
L+ 1
L+ 1
L+ 1
L+ 1
L+ 1
L+ 1
L+ 1
L+ 1
L+ 1
L+ 1
L+ 1
L+ 1
L+ 1
L+ 1
L+ 1
L+ 1
L+ 1
L+ 1
L+ 1
L+ 1
L+ 1
L+ 1
L+ 1
L+ 1
L+ 1
L+ 1
L+ 1
L+ 1
L+ 1
L+ 1
L+ 1
L+ 1
L+ 1
L+ 1
L+ 1
L+ 1
L+ 1
L+ 1
L+ 1
L+ 1
L+ 1
L+ 1
L+ 1
L+ 1
L+ 1
L+ 1
L+ 1
L+ 1
L+ 1
L+ 1
L+ 1
L+ 1
L+ 1
L+ 1
L+ 1
L+ 1
L+ 1
L+ 1
L+ 1
L+ 1
L+ 1
L+ 1
L+ 1
L+ 1
L+ 1
L+ 1
L+ 1
L+ 1
L+ 1
L+ 1
L+ 1
L+ 1
L+ 1
L+ 1
L+ 1
L+ 1
L+ 1
L+ 1
L+ 1
L+ 1
L+ 1
L+ 1
L+ 1
L+ 1
L+ 1
L+ 1
L+ 1
L+ 1
L+ 1
L+ 1
L+ 1
L+ 1
L+ 1
L+ 1
L+ 1
L+ 1
L+ 1
L+ 1
L+ 1
L+ 1
L+ 1
L+ 1
L+ 1
L+ 1
L+ 1
L+ 1
L+ 1
L+ 1
L+ 1
L+ 1
L+ 1
L+ 1
L+ 1
L+ 1
L+ 1
L+ 1
L+ 1
L+ 1
L+ 1
L+ 1
L+ 1
L+ 1
L+ 1
L+ 1
L+ 1
L+ 1
L+ 1
L+ 1
L+ 1
L+ 1
L+ 1
L+ 1
L+ 1
L+ 1
L+ 1
L+ 1
L+ 1
L+ 1
L+ 1
L+ 1
L+ 1
L+ 1
L+ 1
L+ 1
L+ 1
L+ 1
L+ 1
L+ 1
L+ 1
L+ 1
L+ 1
L+ 1
L+ 1
L+ 1
L+ 1
L+ 1
L+ 1
L+ 1
L+ 1
L+ 1
L+ 1
L+ 1
L+ 1
L+ 1
L+ 1
L+ 1
L+ 1
L+ 1
L+ 1
L+ 1
L+ 1
L+ 1
L+ 1
L+ 1
L+ 1
L+ 1
L+ 1
L+ 1
L+ 1
L+ 1
L+ 1
L+ 1
L+ 1
L+ 1
L+ 1
L+ 1
L+ 1
L+ 1
L+ 1
L+ 1
L+ 1
L+ 1
L+ 1
L+ 1
L+ 1
L+ 1
L+ 1
L+ 1
L+ 1
L+ 1
L+ 1
L+ 1
L+ 1
L+ 1
L+ 1
L+ 1
L+ 1
L+ 1
L+ 1
L+ 1
L+ 1
L+ 1
L+ 1
L+ 1
L+ 1
L+ 1
L+ 1
L+ 1
L+ 1
L+ 1
L+ 1
L+ 1
L+ 1
L+ 1
L+ 1
L+ 1
L+ 1
L+ 1
L+ 1
L+ 1
L+ 1
L+ 1
L+ 1
L+ 1
L+ 1
L+ 1
L+ 1
L+ 1
L+ 1
L+ 1
L+ 1
L+ 1
L+ 1
L+ 1
L+ 1
L+ 1
L+ 1
L+ 1
L+ 1
L+ 1
L+ 1
L+ 1
L+ 1
L+ 1
L+ 1
L+ 1
L+ 1
L+ 1
L+ 1
L+ 1
L+ 1
L+ 1
L+ 1
L+ 1
L+ 1
L+ 1
L+ 1
L+ 1
L+ 1
L+ 1

OBJACOORD
1
57 -1.0

ACOORD
1531
0 0 -1.0
1 0 1.0
559 0 1.0
560 0 -1.0
0 1 -1.0
2 1 1.0
561 1 1.0
562 1 -1.0
0 2 -1.0
3 2 1.0
563 2 1.0
564 2 -1.0
0 3 5.0
7 3 -1.0
580 3 1.0
0 4 10.0
8 4 -1.0
581 4 1.0
0 5 5.0
9 5 -1.0
582 5 1.0
0 6 -2.0
181 6 1.0
595 6 1.0
596 6 -1.0
0 7 -1.0
182 7 1.0
597 7 1.0
598 7 -1.0
0 8 -2.0
183 8 1.0
599 8 1.0
600 8 -1.0
0 9 80.0
16 9 -1.0
622 9 1.0
0 10 90.0
17 10 -1.0
623 10 1.0
0 11 120.0
18 11 -1.0
624 11 1.0
0 12 285.0
229 12 1.0
625 12 1.0
0 13 390.0
230 13 1.0
626 13 1.0
0 14 350.0
231 14 1.0
627 14 1.0
0 15 290.0
268 15 1.0
628 15 1.0
0 16 405.0
269 16 1.0
629 16 1.0
0 17 190.0
270 17 1.0
630 17 1.0
0 18 280.0
307 18 1.0
631 18 1.0
0 19 400.0
308 19 1.0
632 19 1.0
0 20 430.0
309 20 1.0
633 20 1.0
0 21 290.0
334 21 1.0
634 21 1.0
0 22 300.0
335 22 1.0
635 22 1.0
0 23 240.0
336 23 1.0
636 23 1.0
0 24 350.0
361 24 1.0
637 24 1.0
0 25 250.0
362 25 1.0
638 25 1.0
0 26 300.0
363 26 1.0
639 26 1.0
0 27 -5.0
376 27 5.0
436 27 -1.0
437 27 -1.0
438 27 -1.0
440 27 -1.0
496 27 1.0
826 27 1.0
827 27 -1.0
0 28 -4.0
377 28 4.0
436 28 -1.0
438 28 -1.0
439 28 -1.0
441 28 -1.0
497 28 1.0
828 28 1.0
829 28 -1.0
0 29 -6.0
378 29 6.0
437 29 -1.0
439 29 -1.0
440 29 -1.0
441 29 -1.0
498 29 1.0
830 29 1.0
831 29 -1.0
0 30 -8.0
379 30 8.0
442 30 -1.0
443 30 -1.0
444 30 -1.0
446 30 -1.0
499 30 1.0
832 30 1.0
833 30 -1.0
0 31 -7.0
380 31 7.0
442 31 -1.0
444 31 -1.0
445 31 -1.0
447 31 -1.0
500 31 1.0
834 31 1.0
835 31 -1.0
0 32 -6.0
381 32 6.0
443 32 -1.0
445 32 -1.0
446 32 -1.0
447 32 -1.0
501 32 1.0
836 32 1.0
837 32 -1.0
0 33 -6.0
382 33 6.0
448 33 -1.0
449 33 -1.0
450 33 -1.0
452 33 -1.0
502 33 1.0
838 33 1.0
839 33 -1.0
0 34 -9.0
383 34 9.0
448 34 -1.0
450 34 -1.0
451 34 -1.0
453 34 -1.0
503 34 1.0
840 34 1.0
841 34 -1.0
0 35 -4.0
384 35 4.0
449 35 -1.0
451 35 -1.0
452 35 -1.0
453 35 -1.0
504 35 1.0
842 35 1.0
843 35 -1.0
0 36 -10.0
385 36 10.0
454 36 -1.0
455 36 -1.0
456 36 -1.0
458 36 -1.0
505 36 1.0
844 36 1.0
845 36 -1.0
0 37 -9.0
386 37 9.0
454 37 -1.0
456 37 -1.0
457 37 -1.0
459 37 -1.0
506 37 1.0
846 37 1.0
847 37 -1.0
0 38 -5.0
387 38 5.0
455 38 -1.0
457 38 -1.0
458 38 -1.0
459 38 -1.0
507 38 1.0
848 38 1.0
849 38 -1.0
0 39 -6.0
388 39 6.0
460 39 -1.0
461 39 -1.0
462 39 -1.0
464 39 -1.0
508 39 1.0
850 39 1.0
851 39 -1.0
0 40 -10.0
389 40 10.0
460 40 -1.0
462 40 -1.0
463 40 -1.0
465 40 -1.0
509 40 1.0
852 40 1.0
853 40 -1.0
0 41 -6.0
390 41 6.0
461 41 -1.0
463 41 -1.0
464 41 -1.0
465 41 -1.0
510 41 1.0
854 41 1.0
855 41 -1.0
0 42 -7.0
391 42 7.0
466 42 -1.0
467 42 -1.0
468 42 -1.0
470 42 -1.0
511 42 1.0
856 42 1.0
857 42 -1.0
0 43 -7.0
392 43 7.0
466 43 -1.0
468 43 -1.0
469 43 -1.0
471 43 -1.0
512 43 1.0
858 43 1.0
859 43 -1.0
0 44 -4.0
393 44 4.0
467 44 -1.0
469 44 -1.0
470 44 -1.0
471 44 -1.0
513 44 1.0
860 44 1.0
861 44 -1.0
0 45 -4.0
394 45 4.0
472 45 -1.0
473 45 -1.0
474 45 -1.0
476 45 -1.0
514 45 1.0
862 45 1.0
863 45 -1.0
0 46 -3.0
395 46 3.0
472 46 -1.0
474 46 -1.0
475 46 -1.0
477 46 -1.0
515 46 1.0
864 46 1.0
865 46 -1.0
0 47 -2.0
396 47 2.0
473 47 -1.0
475 47 -1.0
476 47 -1.0
477 47 -1.0
516 47 1.0
866 47 1.0
867 47 -1.0
0 48 -5.0
397 48 5.0
478 48 -1.0
479 48 -1.0
480 48 -1.0
482 48 -1.0
517 48 1.0
868 48 1.0
869 48 -1.0
0 49 -6.0
398 49 6.0
478 49 -1.0
480 49 -1.0
481 49 -1.0
483 49 -1.0
518 49 1.0
870 49 1.0
871 49 -1.0
0 50 -7.0
399 50 7.0
479 50 -1.0
481 50 -1.0
482 50 -1.0
483 50 -1.0
519 50 1.0
872 50 1.0
873 50 -1.0
0 51 -2.0
400 51 2.0
484 51 -1.0
485 51 -1.0
486 51 -1.0
488 51 -1.0
520 51 1.0
874 51 1.0
875 51 -1.0
0 52 -5.0
401 52 5.0
484 52 -1.0
486 52 -1.0
487 52 -1.0
489 52 -1.0
521 52 1.0
876 52 1.0
877 52 -1.0
0 53 -2.0
402 53 2.0
485 53 -1.0
487 53 -1.0
488 53 -1.0
489 53 -1.0
522 53 1.0
878 53 1.0
879 53 -1.0
0 54 -4.0
403 54 4.0
490 54 -1.0
491 54 -1.0
492 54 -1.0
494 54 -1.0
523 54 1.0
880 54 1.0
881 54 -1.0
0 55 -7.0
404 55 7.0
490 55 -1.0
492 55 -1.0
493 55 -1.0
495 55 -1.0
524 55 1.0
882 55 1.0
883 55 -1.0
0 56 -4.0
405 56 4.0
491 56 -1.0
493 56 -1.0
494 56 -1.0
495 56 -1.0
525 56 1.0
884 56 1.0
885 56 -1.0
0 57 -1.0
1 58 -1.0
40 58 1.0
565 58 1.0
1 59 -1.0
79 59 1.0
568 59 1.0
2 60 -1.0
41 60 1.0
566 60 1.0
2 61 -1.0
80 61 1.0
569 61 1.0
3 62 -1.0
42 62 1.0
567 62 1.0
3 63 -1.0
81 63 1.0
570 63 1.0
4 64 -1.0
43 64 1.0
571 64 1.0
4 65 -1.0
82 65 1.0
574 65 1.0
4 66 1.0
7 66 1.0
577 66 1.0
5 67 -1.0
44 67 1.0
572 67 1.0
5 68 -1.0
83 68 1.0
575 68 1.0
5 69 1.0
8 69 1.0
578 69 1.0
6 70 -1.0
45 70 1.0
573 70 1.0
6 71 -1.0
84 71 1.0
576 71 1.0
6 72 1.0
9 72 1.0
579 72 1.0
7 73 -1.0
10 73 1.0
583 73 1.0
8 74 -1.0
11 74 1.0
584 74 1.0
9 75 -1.0
12 75 1.0
585 75 1.0
10 76 -1.0
106 76 1.0
586 76 1.0
10 77 -1.0
145 77 1.0
589 77 1.0
10 78 -1.0
178 78 1.0
592 78 1.0
11 79 -1.0
107 79 1.0
587 79 1.0
11 80 -1.0
146 80 1.0
590 80 1.0
11 81 -1.0
179 81 1.0
593 81 1.0
12 82 -1.0
108 82 1.0
588 82 1.0
12 83 -1.0
147 83 1.0
591 83 1.0
12 84 -1.0
180 84 1.0
594 84 1.0
13 85 1.0
109 85 1.0
601 85 1.0
13 86 -1.0
226 86 1.0
610 86 1.0
13 87 -1.0
265 87 1.0
613 87 1.0
14 88 1.0
110 88 1.0
602 88 1.0
14 89 -1.0
227 89 1.0
611 89 1.0
14 90 -1.0
266 90 1.0
614 90 1.0
15 91 1.0
111 91 1.0
603 91 1.0
15 92 -1.0
228 92 1.0
612 92 1.0
15 93 -1.0
267 93 1.0
615 93 1.0
16 94 1.0
184 94 1.0
607 94 1.0
16 95 -1.0
331 95 1.0
616 95 1.0
16 96 -1.0
358 96 1.0
619 96 1.0
17 97 1.0
185 97 1.0
608 97 1.0
17 98 -1.0
332 98 1.0
617 98 1.0
17 99 -1.0
359 99 1.0
620 99 1.0
18 100 1.0
186 100 1.0
609 100 1.0
18 101 -1.0
333 101 1.0
618 101 1.0
18 102 -1.0
360 102 1.0
621 102 1.0
21 103 -1.0
23 103 -1.0
19 104 1.0
20 104 1.0
22 104 1.0
46 104 40.0
49 104 -40.0
52 104 3.71357206670431
55 104 -3.71357206670431
406 104 -1.0
407 104 -1.0
496 104 -1.0
497 104 1.0
498 104 1.0
526 104 1.0
535 104 1.0
538 104 1.0
541 104 1.0
766 104 1.0
767 104 -1.0
19 105 1.0
22 105 1.0
40 105 -1.0
46 105 -1.0
640 105 1.0
23 106 -1.0
43 106 -1.0
52 106 -1.0
652 106 1.0
26 107 -1.0
28 107 -1.0
24 108 1.0
25 108 1.0
27 108 1.0
47 108 40.0
50 108 -40.0
53 108 3.71357206670431
56 108 -3.71357206670431
406 108 1.0
408 108 -1.0
497 108 -1.0
498 108 1.0
527 108 1.0
536 108 1.0
539 108 1.0
542 108 1.0
768 108 1.0
769 108 -1.0
24 109 1.0
27 109 1.0
41 109 -1.0
47 109 -1.0
641 109 1.0
28 110 -1.0
44 110 -1.0
53 110 -1.0
653 110 1.0
31 111 -1.0
33 111 -1.0
29 112 1.0
30 112 1.0
32 112 1.0
48 112 40.0
51 112 -40.0
54 112 3.71357206670431
57 112 -3.71357206670431
407 112 1.0
408 112 1.0
498 112 -1.0
528 112 1.0
537 112 1.0
540 112 1.0
543 112 1.0
770 112 1.0
771 112 -1.0
29 113 1.0
32 113 1.0
42 113 -1.0
48 113 -1.0
642 113 1.0
33 114 -1.0
45 114 -1.0
54 114 -1.0
654 114 1.0
34 115 1.0
40 115 -1.0
49 115 -1.0
643 115 1.0
35 116 1.0
41 116 -1.0
50 116 -1.0
644 116 1.0
36 117 1.0
42 117 -1.0
51 117 -1.0
645 117 1.0
37 118 1.0
43 118 -1.0
55 118 -1.0
655 118 1.0
38 119 1.0
44 119 -1.0
56 119 -1.0
656 119 1.0
39 120 1.0
45 120 -1.0
57 120 -1.0
657 120 1.0
60 121 -1.0
62 121 -1.2
58 122 1.0
59 122 1.0
61 122 1.0
85 122 40.0
88 122 -40.0
91 122 4.45628648004517
94 122 -4.45628648004517
409 122 -1.0
410 122 -1.0
499 122 -1.0
500 122 1.0
501 122 1.0
526 122 1.0
535 122 1.0
538 122 1.0
541 122 1.0
772 122 1.0
773 122 -1.0
58 123 1.0
61 123 1.0
79 123 -1.0
85 123 -1.0
646 123 1.0
62 124 -1.0
82 124 -1.0
91 124 -1.0
658 124 1.0
65 125 -1.0
67 125 -1.2
63 126 1.0
64 126 1.0
66 126 1.0
86 126 40.0
89 126 -40.0
92 126 4.45628648004517
95 126 -4.45628648004517
409 126 1.0
411 126 -1.0
500 126 -1.0
501 126 1.0
527 126 1.0
536 126 1.0
539 126 1.0
542 126 1.0
774 126 1.0
775 126 -1.0
63 127 1.0
66 127 1.0
80 127 -1.0
86 127 -1.0
647 127 1.0
67 128 -1.0
83 128 -1.0
92 128 -1.0
659 128 1.0
70 129 -1.0
72 129 -1.2
68 130 1.0
69 130 1.0
71 130 1.0
87 130 40.0
90 130 -40.0
93 130 4.45628648004517
96 130 -4.45628648004517
410 130 1.0
411 130 1.0
501 130 -1.0
528 130 1.0
537 130 1.0
540 130 1.0
543 130 1.0
776 130 1.0
777 130 -1.0
68 131 1.0
71 131 1.0
81 131 -1.0
87 131 -1.0
648 131 1.0
72 132 -1.0
84 132 -1.0
93 132 -1.0
660 132 1.0
73 133 1.0
79 133 -1.0
88 133 -1.0
649 133 1.0
74 134 1.0
80 134 -1.0
89 134 -1.0
650 134 1.0
75 135 1.0
81 135 -1.0
90 135 -1.0
651 135 1.0
76 136 1.0
82 136 -1.0
94 136 -1.0
661 136 1.0
77 137 1.0
83 137 -1.0
95 137 -1.0
662 137 1.0
78 138 1.0
84 138 -1.0
96 138 -1.0
663 138 1.0
97 139 -0.75
106 139 -1.0
112 139 -1.0
664 139 1.0
97 140 1.0
109 140 -1.0
118 140 -1.0
688 140 1.0
98 141 -0.75
107 141 -1.0
113 141 -1.0
665 141 1.0
98 142 1.0
110 142 -1.0
119 142 -1.0
689 142 1.0
99 143 -0.75
108 143 -1.0
114 143 -1.0
666 143 1.0
99 144 1.0
111 144 -1.0
120 144 -1.0
690 144 1.0
100 145 1.0
106 145 -1.0
115 145 -1.0
667 145 1.0
101 146 1.0
107 146 -1.0
116 146 -1.0
668 146 1.0
102 147 1.0
108 147 -1.0
117 147 -1.0
669 147 1.0
103 148 1.0
109 148 -1.0
121 148 -1.0
691 148 1.0
104 149 1.0
110 149 -1.0
122 149 -1.0
692 149 1.0
105 150 1.0
111 150 -1.0
123 150 -1.0
693 150 1.0
112 151 4.45628648004517
115 151 -4.45628648004517
118 151 3.34221486003388
121 151 -3.34221486003388
412 151 -1.0
413 151 -1.0
502 151 -1.0
503 151 1.0
504 151 1.0
529 151 -1.0
535 151 -1.0
544 151 1.0
547 151 1.0
778 151 1.0
779 151 -1.0
113 152 4.45628648004517
116 152 -4.45628648004517
119 152 3.34221486003388
122 152 -3.34221486003388
412 152 1.0
414 152 -1.0
503 152 -1.0
504 152 1.0
530 152 -1.0
536 152 -1.0
545 152 1.0
548 152 1.0
780 152 1.0
781 152 -1.0
114 153 4.45628648004517
117 153 -4.45628648004517
120 153 3.34221486003388
123 153 -3.34221486003388
413 153 1.0
414 153 1.0
504 153 -1.0
531 153 -1.0
537 153 -1.0
546 153 1.0
549 153 1.0
782 153 1.0
783 153 -1.0
126 154 -1.0
128 154 -1.5
124 155 1.0
125 155 1.0
127 155 1.0
151 155 4.45628648004517
154 155 -4.45628648004517
157 155 2.54515263975353
160 155 -2.54515263975353
415 155 -1.0
416 155 -1.0
505 155 -1.0
506 155 1.0
507 155 1.0
532 155 -1.0
538 155 -1.0
550 155 1.0
784 155 1.0
785 155 -1.0
124 156 1.0
127 156 1.0
145 156 -1.0
151 156 -1.0
670 156 1.0
128 157 -1.0
148 157 -1.0
157 157 -1.0
694 157 1.0
131 158 -1.0
133 158 -1.5
129 159 1.0
130 159 1.0
132 159 1.0
152 159 4.45628648004517
155 159 -4.45628648004517
158 159 2.54515263975353
161 159 -2.54515263975353
415 159 1.0
417 159 -1.0
506 159 -1.0
507 159 1.0
533 159 -1.0
539 159 -1.0
551 159 1.0
786 159 1.0
787 159 -1.0
129 160 1.0
132 160 1.0
146 160 -1.0
152 160 -1.0
671 160 1.0
133 161 -1.0
149 161 -1.0
158 161 -1.0
695 161 1.0
136 162 -1.0
138 162 -1.5
134 163 1.0
135 163 1.0
137 163 1.0
153 163 4.45628648004517
156 163 -4.45628648004517
159 163 2.54515263975353
162 163 -2.54515263975353
416 163 1.0
417 163 1.0
507 163 -1.0
534 163 -1.0
540 163 -1.0
552 163 1.0
788 163 1.0
789 163 -1.0
134 164 1.0
137 164 1.0
147 164 -1.0
153 164 -1.0
672 164 1.0
138 165 -1.0
150 165 -1.0
159 165 -1.0
696 165 1.0
139 166 1.0
145 166 -1.0
154 166 -1.0
673 166 1.0
140 167 1.0
146 167 -1.0
155 167 -1.0
674 167 1.0
141 168 1.0
147 168 -1.0
156 168 -1.0
675 168 1.0
142 169 1.0
148 169 -1.0
160 169 -1.0
700 169 1.0
143 170 1.0
149 170 -1.0
161 170 -1.0
701 170 1.0
144 171 1.0
150 171 -1.0
162 171 -1.0
702 171 1.0
148 172 1.0
304 172 1.0
604 172 1.0
149 173 1.0
305 173 1.0
605 173 1.0
150 174 1.0
306 174 1.0
606 174 1.0
163 175 -1.0
178 175 -1.0
187 175 -1.0
676 175 1.0
163 176 1.0
166 176 1.0
184 176 -1.0
199 176 -1.0
706 176 1.0
164 177 -1.0
179 177 -1.0
188 177 -1.0
677 177 1.0
164 178 1.0
167 178 1.0
185 178 -1.0
200 178 -1.0
707 178 1.0
165 179 -1.0
180 179 -1.0
189 179 -1.0
678 179 1.0
165 180 1.0
168 180 1.0
186 180 -1.0
201 180 -1.0
708 180 1.0
166 181 -0.5
181 181 -1.0
193 181 -1.0
682 181 1.0
167 182 -0.5
182 182 -1.0
194 182 -1.0
683 182 1.0
168 183 -0.5
183 183 -1.0
195 183 -1.0
684 183 1.0
169 184 1.0
178 184 -1.0
190 184 -1.0
679 184 1.0
170 185 1.0
179 185 -1.0
191 185 -1.0
680 185 1.0
171 186 1.0
180 186 -1.0
192 186 -1.0
681 186 1.0
172 187 1.0
181 187 -1.0
196 187 -1.0
685 187 1.0
173 188 1.0
182 188 -1.0
197 188 -1.0
686 188 1.0
174 189 1.0
183 189 -1.0
198 189 -1.0
687 189 1.0
175 190 1.0
184 190 -1.0
202 190 -1.0
709 190 1.0
176 191 1.0
185 191 -1.0
203 191 -1.0
710 191 1.0
177 192 1.0
186 192 -1.0
204 192 -1.0
711 192 1.0
187 193 4.45628648004517
190 193 -4.45628648004517
193 193 30.0
196 193 -30.0
199 193 15.0
202 193 -15.0
418 193 -1.0
419 193 -1.0
508 193 -1.0
509 193 1.0
510 193 1.0
541 193 -1.0
553 193 1.0
556 193 1.0
790 193 1.0
791 193 -1.0
188 194 4.45628648004517
191 194 -4.45628648004517
194 194 30.0
197 194 -30.0
200 194 15.0
203 194 -15.0
418 194 1.0
420 194 -1.0
509 194 -1.0
510 194 1.0
542 194 -1.0
554 194 1.0
557 194 1.0
792 194 1.0
793 194 -1.0
189 195 4.45628648004517
192 195 -4.45628648004517
195 195 30.0
198 195 -30.0
201 195 15.0
204 195 -15.0
419 195 1.0
420 195 1.0
510 195 -1.0
543 195 -1.0
555 195 1.0
558 195 1.0
794 195 1.0
795 195 -1.0
207 196 -1.0
209 196 -1.25
205 197 1.0
206 197 1.0
208 197 1.0
232 197 3.34221486003388
235 197 -3.34221486003388
238 197 1.83548069293539
241 197 -1.83548069293539
421 197 -1.0
422 197 -1.0
511 197 -1.0
512 197 1.0
513 197 1.0
529 197 1.0
544 197 -1.0
796 197 1.0
797 197 -1.0
205 198 1.0
208 198 1.0
226 198 -1.0
232 198 -1.0
712 198 1.0
209 199 -1.0
229 199 -1.0
238 199 -1.0
736 199 1.0
212 200 -1.0
214 200 -1.25
210 201 1.0
211 201 1.0
213 201 1.0
233 201 3.34221486003388
236 201 -3.34221486003388
239 201 1.83548069293539
242 201 -1.83548069293539
421 201 1.0
423 201 -1.0
512 201 -1.0
513 201 1.0
530 201 1.0
545 201 -1.0
798 201 1.0
799 201 -1.0
210 202 1.0
213 202 1.0
227 202 -1.0
233 202 -1.0
713 202 1.0
214 203 -1.0
230 203 -1.0
239 203 -1.0
737 203 1.0
217 204 -1.0
219 204 -1.25
215 205 1.0
216 205 1.0
218 205 1.0
234 205 3.34221486003388
237 205 -3.34221486003388
240 205 1.83548069293539
243 205 -1.83548069293539
422 205 1.0
423 205 1.0
513 205 -1.0
531 205 1.0
546 205 -1.0
800 205 1.0
801 205 -1.0
215 206 1.0
218 206 1.0
228 206 -1.0
234 206 -1.0
714 206 1.0
219 207 -1.0
231 207 -1.0
240 207 -1.0
738 207 1.0
220 208 1.0
226 208 -1.0
235 208 -1.0
715 208 1.0
221 209 1.0
227 209 -1.0
236 209 -1.0
716 209 1.0
222 210 1.0
228 210 -1.0
237 210 -1.0
717 210 1.0
223 211 1.0
229 211 -1.0
241 211 -1.0
739 211 1.0
224 212 1.0
230 212 -1.0
242 212 -1.0
740 212 1.0
225 213 1.0
231 213 -1.0
243 213 -1.0
741 213 1.0
246 214 -1.0
248 214 -0.9
244 215 1.0
245 215 1.0
247 215 1.0
271 215 3.34221486003388
274 215 -3.34221486003388
277 215 1.32154609891348
280 215 -1.32154609891348
424 215 -1.0
425 215 -1.0
514 215 -1.0
515 215 1.0
516 215 1.0
529 215 1.0
547 215 -1.0
802 215 1.0
803 215 -1.0
244 216 1.0
247 216 1.0
265 216 -1.0
271 216 -1.0
718 216 1.0
248 217 -1.0
268 217 -1.0
277 217 -1.0
742 217 1.0
251 218 -1.0
253 218 -0.9
249 219 1.0
250 219 1.0
252 219 1.0
272 219 3.34221486003388
275 219 -3.34221486003388
278 219 1.32154609891348
281 219 -1.32154609891348
424 219 1.0
426 219 -1.0
515 219 -1.0
516 219 1.0
530 219 1.0
548 219 -1.0
804 219 1.0
805 219 -1.0
249 220 1.0
252 220 1.0
266 220 -1.0
272 220 -1.0
719 220 1.0
253 221 -1.0
269 221 -1.0
278 221 -1.0
743 221 1.0
256 222 -1.0
258 222 -0.9
254 223 1.0
255 223 1.0
257 223 1.0
273 223 3.34221486003388
276 223 -3.34221486003388
279 223 1.32154609891348
282 223 -1.32154609891348
425 223 1.0
426 223 1.0
516 223 -1.0
531 223 1.0
549 223 -1.0
806 223 1.0
807 223 -1.0
254 224 1.0
257 224 1.0
267 224 -1.0
273 224 -1.0
720 224 1.0
258 225 -1.0
270 225 -1.0
279 225 -1.0
744 225 1.0
259 226 1.0
265 226 -1.0
274 226 -1.0
721 226 1.0
260 227 1.0
266 227 -1.0
275 227 -1.0
722 227 1.0
261 228 1.0
267 228 -1.0
276 228 -1.0
723 228 1.0
262 229 1.0
268 229 -1.0
280 229 -1.0
745 229 1.0
263 230 1.0
269 230 -1.0
281 230 -1.0
746 230 1.0
264 231 1.0
270 231 -1.0
282 231 -1.0
747 231 1.0
285 232 -1.0
287 232 -1.0
283 233 1.0
284 233 1.0
286 233 1.0
310 233 2.54515263975353
313 233 -2.54515263975353
316 233 1.26558121681553
319 233 -1.26558121681553
427 233 -1.0
428 233 -1.0
517 233 -1.0
518 233 1.0
519 233 1.0
532 233 1.0
550 233 -1.0
808 233 1.0
809 233 -1.0
283 234 1.0
286 234 1.0
304 234 -1.0
310 234 -1.0
697 234 1.0
287 235 -1.0
307 235 -1.0
316 235 -1.0
748 235 1.0
290 236 -1.0
292 236 -1.0
288 237 1.0
289 237 1.0
291 237 1.0
311 237 2.54515263975353
314 237 -2.54515263975353
317 237 1.26558121681553
320 237 -1.26558121681553
427 237 1.0
429 237 -1.0
518 237 -1.0
519 237 1.0
533 237 1.0
551 237 -1.0
810 237 1.0
811 237 -1.0
288 238 1.0
291 238 1.0
305 238 -1.0
311 238 -1.0
698 238 1.0
292 239 -1.0
308 239 -1.0
317 239 -1.0
749 239 1.0
295 240 -1.0
297 240 -1.0
293 241 1.0
294 241 1.0
296 241 1.0
312 241 2.54515263975353
315 241 -2.54515263975353
318 241 1.26558121681553
321 241 -1.26558121681553
428 241 1.0
429 241 1.0
519 241 -1.0
534 241 1.0
552 241 -1.0
812 241 1.0
813 241 -1.0
293 242 1.0
296 242 1.0
306 242 -1.0
312 242 -1.0
699 242 1.0
297 243 -1.0
309 243 -1.0
318 243 -1.0
750 243 1.0
298 244 1.0
304 244 -1.0
313 244 -1.0
703 244 1.0
299 245 1.0
305 245 -1.0
314 245 -1.0
704 245 1.0
300 246 1.0
306 246 -1.0
315 246 -1.0
705 246 1.0
301 247 1.0
307 247 -1.0
319 247 -1.0
751 247 1.0
302 248 1.0
308 248 -1.0
320 248 -1.0
752 248 1.0
303 249 1.0
309 249 -1.0
321 249 -1.0
753 249 1.0
322 250 -0.9
331 250 -1.0
337 250 -1.0
724 250 1.0
322 251 1.0
334 251 -1.0
343 251 -1.0
754 251 1.0
323 252 -0.9
332 252 -1.0
338 252 -1.0
725 252 1.0
323 253 1.0
335 253 -1.0
344 253 -1.0
755 253 1.0
324 254 -0.9
333 254 -1.0
339 254 -1.0
726 254 1.0
324 255 1.0
336 255 -1.0
345 255 -1.0
756 255 1.0
325 256 1.0
331 256 -1.0
340 256 -1.0
727 256 1.0
326 257 1.0
332 257 -1.0
341 257 -1.0
728 257 1.0
327 258 1.0
333 258 -1.0
342 258 -1.0
729 258 1.0
328 259 1.0
334 259 -1.0
346 259 -1.0
757 259 1.0
329 260 1.0
335 260 -1.0
347 260 -1.0
758 260 1.0
330 261 1.0
336 261 -1.0
348 261 -1.0
759 261 1.0
337 262 15.0
340 262 -15.0
343 262 13.5
346 262 -13.5
430 262 -1.0
431 262 -1.0
520 262 -1.0
521 262 1.0
522 262 1.0
553 262 -1.0
814 262 1.0
815 262 -1.0
338 263 15.0
341 263 -15.0
344 263 13.5
347 263 -13.5
430 263 1.0
432 263 -1.0
521 263 -1.0
522 263 1.0
554 263 -1.0
816 263 1.0
817 263 -1.0
339 264 15.0
342 264 -15.0
345 264 13.5
348 264 -13.5
431 264 1.0
432 264 1.0
522 264 -1.0
555 264 -1.0
818 264 1.0
819 264 -1.0
349 265 -0.6
358 265 -1.0
364 265 -1.0
730 265 1.0
349 266 1.0
361 266 -1.0
370 266 -1.0
760 266 1.0
350 267 -0.6
359 267 -1.0
365 267 -1.0
731 267 1.0
350 268 1.0
362 268 -1.0
371 268 -1.0
761 268 1.0
351 269 -0.6
360 269 -1.0
366 269 -1.0
732 269 1.0
351 270 1.0
363 270 -1.0
372 270 -1.0
762 270 1.0
352 271 1.0
358 271 -1.0
367 271 -1.0
733 271 1.0
353 272 1.0
359 272 -1.0
368 272 -1.0
734 272 1.0
354 273 1.0
360 273 -1.0
369 273 -1.0
735 273 1.0
355 274 1.0
361 274 -1.0
373 274 -1.0
763 274 1.0
356 275 1.0
362 275 -1.0
374 275 -1.0
764 275 1.0
357 276 1.0
363 276 -1.0
375 276 -1.0
765 276 1.0
364 277 15.0
367 277 -15.0
370 277 9.0
373 277 -9.0
433 277 -1.0
434 277 -1.0
523 277 -1.0
524 277 1.0
525 277 1.0
556 277 -1.0
820 277 1.0
821 277 -1.0
365 278 15.0
368 278 -15.0
371 278 9.0
374 278 -9.0
433 278 1.0
435 278 -1.0
524 278 -1.0
525 278 1.0
557 278 -1.0
822 278 1.0
823 278 -1.0
366 279 15.0
369 279 -15.0
372 279 9.0
375 279 -9.0
434 279 1.0
435 279 1.0
525 279 -1.0
558 279 -1.0
824 279 1.0
825 279 -1.0
376 280 1.0
377 281 1.0
378 282 1.0
379 283 1.0
380 284 1.0
381 285 1.0
382 286 1.0
383 287 1.0
384 288 1.0
385 289 1.0
386 290 1.0
387 291 1.0
388 292 1.0
389 293 1.0
390 294 1.0
391 295 1.0
392 296 1.0
393 297 1.0
394 298 1.0
395 299 1.0
396 300 1.0
397 301 1.0
398 302 1.0
399 303 1.0
400 304 1.0
401 305 1.0
402 306 1.0
403 307 1.0
404 308 1.0
405 309 1.0

BCOORD
192
49 40.0
50 40.0
51 40.0
55 3.71357206670431
56 3.71357206670431
57 3.71357206670431
88 40.0
89 40.0
90 40.0
94 4.45628648004517
95 4.45628648004517
96 4.45628648004517
115 4.45628648004517
116 4.45628648004517
117 4.45628648004517
121 3.34221486003388
122 3.34221486003388
123 3.34221486003388
154 4.45628648004517
155 4.45628648004517
156 4.45628648004517
160 2.54515263975353
161 2.54515263975353
162 2.54515263975353
190 4.45628648004517
191 4.45628648004517
192 4.45628648004517
196 30.0
197 30.0
198 30.0
202 15.0
203 15.0
204 15.0
235 3.34221486003388
236 3.34221486003388
237 3.34221486003388
241 1.83548069293539
242 1.83548069293539
243 1.83548069293539
274 3.34221486003388
275 3.34221486003388
276 3.34221486003388
280 1.32154609891348
281 1.32154609891348
282 1.32154609891348
313 2.54515263975353
314 2.54515263975353
315 2.54515263975353
319 1.26558121681553
320 1.26558121681553
321 1.26558121681553
340 15.0
341 15.0
342 15.0
346 13.5
347 13.5
348 13.5
367 15.0
368 15.0
369 15.0
373 9.0
374 9.0
375 9.0
436 1.0
437 1.0
438 1.0
439 1.0
440 1.0
441 1.0
442 1.0
443 1.0
444 1.0
445 1.0
446 1.0
447 1.0
448 1.0
449 1.0
450 1.0
451 1.0
452 1.0
453 1.0
454 1.0
455 1.0
456 1.0
457 1.0
458 1.0
459 1.0
460 1.0
461 1.0
462 1.0
463 1.0
464 1.0
465 1.0
466 1.0
467 1.0
468 1.0
469 1.0
470 1.0
471 1.0
472 1.0
473 1.0
474 1.0
475 1.0
476 1.0
477 1.0
478 1.0
479 1.0
480 1.0
481 1.0
482 1.0
483 1.0
484 1.0
485 1.0
486 1.0
487 1.0
488 1.0
489 1.0
490 1.0
491 1.0
492 1.0
493 1.0
494 1.0
495 1.0
526 -1.0
527 -1.0
528 -1.0
560 40.0
562 40.0
564 40.0
596 30.0
598 30.0
600 30.0
767 1.0
769 1.0
771 1.0
773 1.0
775 1.0
777 1.0
779 1.0
781 1.0
783 1.0
785 1.0
787 1.0
789 1.0
791 1.0
793 1.0
795 1.0
797 1.0
799 1.0
801 1.0
803 1.0
805 1.0
807 1.0
809 1.0
811 1.0
813 1.0
815 1.0
817 1.0
819 1.0
821 1.0
823 1.0
825 1.0
827 1.0
829 1.0
831 1.0
833 1.0
835 1.0
837 1.0
839 1.0
841 1.0
843 1.0
845 1.0
847 1.0
849 1.0
851 1.0
853 1.0
855 1.0
857 1.0
859 1.0
861 1.0
863 1.0
865 1.0
867 1.0
869 1.0
871 1.0
873 1.0
875 1.0
877 1.0
879 1.0
881 1.0
883 1.0
885 1.0
